Route #1: 212 8 6 210 19 12 11 199 200 16 114 41 165 163 18 149 159 5 81
Route #2: 99 98 95 142 108 146 144 141 106 60 136 153 61 198 202 29 38 17 7 190
Route #3: 211 170 10 14 22 21 164 172 50 54 53 24 154 155 9 92 126 125 156 209 206 173 203
Route #4: 189 20 13 86 2 197 183 117 187 150 186 185 132 130 100 90 181 131 152 177 161 180 196
Route #5: 133 80 113 122 120 128 129 118 127 157 169 140 151 116 148 109 97 124 63 72 62
Route #6: 37 57 58 77 51 56 84 82 119 134 147 101 110 111 104 102 103 87 105 123 74 73
Route #7: 135 171 35 176 42 166 89 178 179 168 167 79 85 194 43 184 160 139 162
Route #8: 182 158 207 69 67 34 55 33 188 36 39 121 93 59 49 46 25 23 44 32 47 28 30 205
Route #9: 94 26 204 4 15 195 174 201 65 107 48 137 71 78 145 3 27 45 40 115 208
Route #10: 64 70 88 76 75 96 52 138 191 31 1 112 91 83 175 143 66 68 193 192
Cost 81752
Time 197.463
